
Gurobi 6.5.1 (mac64) logging started Wed Aug 17 08:32:01 2016


Gurobi 6.5.1 (mac64) logging started Wed Aug 17 08:32:15 2016


Gurobi 6.5.1 (mac64) logging started Wed Aug 17 08:32:28 2016


Gurobi 6.5.1 (mac64) logging started Wed Aug 17 08:33:39 2016


Gurobi 6.5.1 (mac64) logging started Wed Aug 17 08:34:12 2016


Gurobi 6.5.1 (mac64) logging started Wed Aug 17 08:35:14 2016


Gurobi 6.5.1 (mac64) logging started Wed Aug 17 08:37:28 2016


Gurobi 6.5.1 (mac64) logging started Wed Aug 17 08:38:49 2016


Gurobi 6.5.1 (mac64) logging started Wed Aug 17 08:39:58 2016


Gurobi 6.5.1 (mac64) logging started Wed Aug 17 08:42:16 2016


Gurobi 6.5.1 (mac64) logging started Wed Aug 17 08:42:37 2016


Gurobi 6.5.1 (mac64) logging started Wed Aug 17 08:55:06 2016


Gurobi 6.5.1 (mac64) logging started Wed Aug 17 08:56:33 2016


Gurobi 6.5.1 (mac64) logging started Wed Aug 17 09:07:39 2016


Gurobi 6.5.1 (mac64) logging started Wed Aug 17 09:31:51 2016

